Minimize
  0.0588235294117647 y_0 + 0.0555555555555556 y_1 + 0.0833333333333333 y_2
   + 0.3333333333333333 y_3 + 0.0588235294117647 y_4
   + 0.0714285714285714 y_5 + 0.0588235294117647 y_6 + 0.125 y_7 + 0.2 y_8
   + 0.0476190476190476 y_9 + 0.0454545454545455 y_10
   + 0.0454545454545455 y_11 + 0.0625 y_12 + 0.0909090909090909 y_13
   + 0.0769230769230769 y_14 + 0.0555555555555556 y_15
   + 0.0909090909090909 y_16 + 0.0833333333333333 y_17
   + 0.0476190476190476 y_18 + y_19 - 2.691398715663421 Constant
Subject To
 c_0: y_0 = 1
 c_1_0: y_0 + y_1 + y_12 >= 1
 c_1_1: y_0 + y_1 + y_12 >= 1
 c_1_2: y_2 + y_14 + y_16 + y_17 >= 1
 c_1_3: y_3 + y_19 >= 1
 c_1_4: y_4 >= 1
 c_1_5: y_5 + y_12 >= 1
 c_1_6: y_6 + y_15 >= 1
 c_1_7: y_7 + y_16 >= 1
 c_1_8: y_8 + y_19 >= 1
 c_1_9: y_9 >= 1
 c_1_10: y_10 >= 1
 c_1_11: y_11 + y_18 >= 1
 c_1_12: y_0 + y_1 + y_5 + y_12 >= 1
 c_1_13: y_13 >= 1
 c_1_14: y_2 + y_14 + y_16 + y_17 >= 1
 c_1_15: y_6 + y_15 + y_18 >= 1
 c_1_16: y_2 + y_7 + y_14 + y_16 + y_17 >= 1
 c_1_17: y_2 + y_14 + y_16 + y_17 >= 1
 c_1_18: y_11 + y_15 + y_18 >= 1
 c_1_19: y_3 + y_8 + y_19 >= 1
Bounds
 Constant = 1
Binaries
 y_0 y_1 y_2 y_3 y_4 y_5 y_6 y_7 y_8 y_9 y_10 y_11 y_12 y_13 y_14 y_15 y_16
 y_17 y_18 y_19
End
